(set-logic QF_S)
(declare-fun var0 () String)
(declare-fun var1 () String)
(declare-fun var2 () String)
(declare-fun var3 () String)
(declare-fun var4 () String)
(declare-fun var5 () String)
(declare-fun var6 () String)
(declare-fun var7 () String)
(declare-fun var8 () String)
(declare-fun var9 () String)
(declare-fun var10 () String)
(declare-fun var11 () String)
(declare-fun var12 () String)
(declare-fun var13 () String)
(declare-fun var14 () String)
(declare-fun var15 () String)
(declare-fun var16 () String)
(declare-fun var17 () String)
(declare-fun var18 () String)
(declare-fun var19 () String)
(declare-fun var20 () String)
(declare-fun var21 () String)
(declare-fun var22 () String)
(declare-fun var23 () String)
(declare-fun var24 () String)
(declare-fun var25 () String)
(declare-fun var26 () String)
(declare-fun var27 () String)
(declare-fun var28 () String)
(declare-fun var29 () String)
(declare-fun var30 () String)
(declare-fun var31 () String)
(declare-fun var32 () String)
(declare-fun var33 () String)
(declare-fun var34 () String)
(declare-fun var35 () String)
(declare-fun var36 () String)
(declare-fun var37 () String)
(declare-fun var38 () String)
(declare-fun var39 () String)
(declare-fun var40 () String)
(declare-fun var41 () String)
(declare-fun var42 () String)
(declare-fun var43 () String)
(declare-fun var44 () String)
(declare-fun var45 () String)
(declare-fun var46 () String)
(declare-fun var47 () String)
(declare-fun var48 () String)
(declare-fun var49 () String)
(declare-fun var50 () String)
(declare-fun var51 () String)
(declare-fun var52 () String)
(declare-fun var53 () String)
(declare-fun var54 () String)
(declare-fun var55 () String)
(declare-fun var56 () String)
(declare-fun var57 () String)
(declare-fun var58 () String)
(declare-fun var59 () String)
(declare-fun var60 () String)
(assert (= var0 (Concat var1 var2)))
(assert (= var2 (Concat var3 var4)))
(assert (= var4 (Concat var5 var6)))
(assert (= var6 (Concat var7 var8)))
(assert (= var8 (Concat var9 var10)))
(assert (= var10 (Concat var11 var12)))
(assert (= var12 (Concat var13 var14)))
(assert (= var14 (Concat var15 var16)))
(assert (= var16 (Concat var17 var18)))
(assert (= var18 (Concat var19 var20)))
(assert (= var20 (Concat var21 var22)))
(assert (= var22 (Concat var23 var24)))
(assert (= var24 (Concat var25 var26)))
(assert (= var26 (Concat var27 var28)))
(assert (= var28 (Concat var29 var30)))
(assert (= var30 (Concat var31 var32)))
(assert (= var32 (Concat var33 var34)))
(assert (= var34 (Concat var35 var36)))
(assert (= var36 (Concat var37 var38)))
(assert (= var38 (Concat var39 var40)))
(assert (= var40 (Concat var41 var42)))
(assert (= var42 (Concat var43 var44)))
(assert (= var44 (Concat var45 var46)))
(assert (= var46 (Concat var47 var48)))
(assert (= var48 (Concat var49 var50)))
(assert (= var50 (Concat var51 var52)))
(assert (= var52 (Concat var53 var54)))
(assert (= var54 (Concat var55 var56)))
(assert (= var56 (Concat var57 var58)))
(assert (= var58 (Concat var59 var60)))
(assert (= var0 "solution"))
(assert (= "w" (CharAt var4 50)))
(assert (= "*" (CharAt var2 509)))
(assert (= "p" (CharAt var47 975)))
(assert (= "c" (CharAt var46 510)))
(assert (= "z" (CharAt var39 937)))
(assert (= "J" (CharAt var17 699)))
(assert (= "`" (CharAt var25 760)))
(assert (= "0" (CharAt var2 58)))
(assert (= "V" (CharAt var28 1000)))
(assert (= "{" (CharAt var17 571)))
(assert (= "R" (CharAt var37 878)))
(assert (= "9" (CharAt var37 339)))
(assert (= "w" (CharAt var53 518)))
(assert (= "s" (CharAt var38 929)))
(assert (= "2" (CharAt var33 983)))
(assert (= "X" (CharAt var29 787)))
(assert (= "\"" (CharAt var56 167)))
(assert (= "y" (CharAt var56 249)))
(assert (= "Q" (CharAt var43 554)))
(assert (= ">" (CharAt var7 205)))
(assert (= "w" (CharAt var23 610)))
(assert (= "?" (CharAt var51 34)))
(assert (= "]" (CharAt var0 831)))
(assert (= "[" (CharAt var8 739)))
(assert (= "4" (CharAt var11 700)))
(assert (= "i" (CharAt var59 802)))
(assert (= "m" (CharAt var18 340)))
(assert (= "[" (CharAt var40 932)))
(assert (= "R" (CharAt var45 827)))
(assert (= "C" (CharAt var20 688)))
(assert (= "+" (CharAt var7 232)))
(assert (= "~" (CharAt var26 374)))
(assert (= "4" (CharAt var47 378)))
(assert (= ">" (CharAt var16 485)))
(assert (= "=" (CharAt var28 68)))
(assert (= "U" (CharAt var23 719)))
(assert (= "=" (CharAt var11 455)))
(assert (= "Q" (CharAt var54 421)))
(assert (= "N" (CharAt var14 343)))
(assert (= "l" (CharAt var55 440)))
(assert (= "m" (CharAt var9 249)))
(assert (= "W" (CharAt var30 30)))
(assert (= "}" (CharAt var16 308)))
(assert (= "a" (CharAt var20 364)))
(assert (= "T" (CharAt var52 877)))
(assert (= "\"" (CharAt var35 187)))
(assert (= ")" (CharAt var48 235)))
(assert (= "`" (CharAt var37 811)))
(assert (= "x" (CharAt var54 440)))
(assert (= "i" (CharAt var36 399)))
(assert (= "'" (CharAt var0 55)))
(assert (= "3" (CharAt var13 319)))
(assert (= "I" (CharAt var14 787)))
(assert (= "l" (CharAt var8 821)))
(assert (= "E" (CharAt var15 415)))
(assert (= "}" (CharAt var39 573)))
(assert (= "|" (CharAt var58 787)))
(assert (= "~" (CharAt var0 398)))
(assert (= "%" (CharAt var39 209)))
(assert (= "z" (CharAt var20 263)))
(assert (= "W" (CharAt var11 854)))
(assert (= "b" (CharAt var3 567)))
(assert (= "f" (CharAt var34 977)))
(assert (= "u" (CharAt var13 845)))
(assert (= "Z" (CharAt var55 262)))
(assert (= "x" (CharAt var2 939)))
(assert (= "1" (CharAt var47 190)))
(assert (= "2" (CharAt var55 100)))
(assert (= "i" (CharAt var18 838)))
(assert (= "U" (CharAt var13 878)))
(assert (= "\\" (CharAt var30 599)))
(assert (= "]" (CharAt var8 965)))
(assert (= "," (CharAt var42 938)))
(assert (= "e" (CharAt var43 168)))
(assert (= "." (CharAt var44 486)))
(assert (= "~" (CharAt var2 368)))
(assert (= "p" (CharAt var40 961)))
(assert (= "j" (CharAt var32 984)))
(assert (= "U" (CharAt var11 7)))
(assert (= "b" (CharAt var18 188)))
(assert (= "c" (CharAt var26 747)))
(assert (= ":" (CharAt var59 846)))
(assert (= "W" (CharAt var34 998)))
(assert (= "y" (CharAt var57 936)))
(assert (= "}" (CharAt var40 104)))
(assert (= "3" (CharAt var11 896)))
(assert (= "%" (CharAt var29 882)))
(assert (= "H" (CharAt var8 385)))
(assert (= "7" (CharAt var45 236)))
(assert (= "<" (CharAt var32 570)))
(assert (= "]" (CharAt var57 144)))
(assert (= "<" (CharAt var8 172)))
(assert (= "+" (CharAt var16 979)))
(assert (= "[" (CharAt var21 289)))
(assert (= "C" (CharAt var1 179)))
(assert (= "A" (CharAt var31 384)))
(assert (= ">" (CharAt var31 83)))
(assert (= "f" (CharAt var37 513)))
(assert (= "3" (CharAt var12 94)))
(assert (= "4" (CharAt var36 621)))
(assert (= "%" (CharAt var6 63)))
(assert (= "l" (CharAt var43 768)))
(assert (= "c" (CharAt var7 796)))
(assert (= "w" (CharAt var23 673)))
(assert (= "W" (CharAt var55 0)))
(assert (= "6" (CharAt var16 695)))
(assert (= "G" (CharAt var8 141)))
(assert (= "P" (CharAt var15 176)))
(assert (= "H" (CharAt var19 135)))
(assert (= "#" (CharAt var0 930)))
(assert (= "7" (CharAt var35 793)))
(assert (= "#" (CharAt var39 312)))
(assert (= "[" (CharAt var48 631)))
(assert (= "9" (CharAt var1 129)))
(assert (= "O" (CharAt var14 107)))
(assert (= "!" (CharAt var16 949)))
(assert (= "C" (CharAt var7 252)))
(assert (= "I" (CharAt var26 998)))
(assert (= "3" (CharAt var50 254)))
(assert (= "I" (CharAt var37 318)))
(assert (= "," (CharAt var53 395)))
(assert (= "V" (CharAt var25 977)))
(assert (= "R" (CharAt var42 307)))
(assert (= "," (CharAt var59 466)))
(assert (= "F" (CharAt var39 963)))
(assert (= "\\" (CharAt var41 473)))
(assert (= "m" (CharAt var56 699)))
(assert (= "@" (CharAt var1 136)))
(assert (= "^" (CharAt var35 102)))
(assert (= "b" (CharAt var28 311)))
(assert (= "\"" (CharAt var20 467)))
(assert (= "3" (CharAt var16 616)))
(assert (= "H" (CharAt var28 719)))
(assert (= "6" (CharAt var36 767)))
(assert (= "$" (CharAt var54 76)))
(assert (= "L" (CharAt var13 751)))
(assert (= "." (CharAt var7 583)))
(assert (= "R" (CharAt var41 759)))
(assert (= "=" (CharAt var18 148)))
(assert (= "7" (CharAt var34 415)))
(assert (= "$" (CharAt var40 719)))
(assert (= "*" (CharAt var56 344)))
(assert (= "}" (CharAt var54 823)))
(assert (= "C" (CharAt var12 830)))
(assert (= "=" (CharAt var2 736)))
(assert (= "W" (CharAt var51 213)))
(assert (= "z" (CharAt var29 605)))
(assert (= "S" (CharAt var33 160)))
(assert (= "O" (CharAt var55 426)))
(assert (= "E" (CharAt var57 398)))
(assert (= "h" (CharAt var25 785)))
(assert (= "Q" (CharAt var25 452)))
(assert (= "u" (CharAt var33 498)))
(assert (= "&" (CharAt var31 817)))
(assert (= "W" (CharAt var30 920)))
(assert (= "y" (CharAt var38 289)))
(assert (= "v" (CharAt var12 397)))
(assert (= "]" (CharAt var14 48)))
(assert (= "#" (CharAt var11 895)))
(assert (= "t" (CharAt var19 858)))
(assert (= "t" (CharAt var59 576)))
(assert (= "{" (CharAt var16 536)))
(assert (= "E" (CharAt var10 561)))
(assert (= "t" (CharAt var7 154)))
(assert (= "}" (CharAt var25 577)))
(assert (= "~" (CharAt var31 318)))
(assert (= "q" (CharAt var1 997)))
(assert (= "b" (CharAt var56 438)))
(assert (= "*" (CharAt var23 581)))
(assert (= "^" (CharAt var55 651)))
(assert (= "+" (CharAt var46 539)))
(assert (= "=" (CharAt var9 41)))
(assert (= "|" (CharAt var3 146)))
(assert (= "b" (CharAt var48 975)))
(assert (= "d" (CharAt var40 585)))
(assert (= "q" (CharAt var27 554)))
(assert (= "X" (CharAt var29 615)))
(assert (= "G" (CharAt var27 551)))
(assert (= "i" (CharAt var50 788)))
(assert (= "m" (CharAt var43 724)))
(assert (= "5" (CharAt var37 264)))
(assert (= "!" (CharAt var7 510)))
(assert (= ";" (CharAt var48 182)))
(assert (= "m" (CharAt var13 188)))
(assert (= "w" (CharAt var21 293)))
(assert (= "R" (CharAt var50 917)))
(assert (= "9" (CharAt var37 948)))
(assert (= "_" (CharAt var17 156)))
(assert (= "e" (CharAt var37 41)))
(assert (= "g" (CharAt var19 859)))
(assert (= "a" (CharAt var23 243)))
(assert (= "[" (CharAt var16 577)))
(assert (= "I" (CharAt var28 452)))
(assert (= "G" (CharAt var56 178)))
(assert (= "'" (CharAt var55 120)))
(assert (= "'" (CharAt var20 267)))
(assert (= "]" (CharAt var55 740)))
(assert (= "O" (CharAt var13 350)))
(assert (= "~" (CharAt var39 484)))
(assert (= "8" (CharAt var7 46)))
(assert (= "5" (CharAt var13 440)))
(assert (= "]" (CharAt var45 190)))
(assert (= ")" (CharAt var23 654)))
(assert (= "." (CharAt var50 4)))
(assert (= "F" (CharAt var28 539)))
(assert (= "q" (CharAt var29 546)))
(assert (= "U" (CharAt var44 734)))
(assert (= "Q" (CharAt var41 46)))
(assert (= "*" (CharAt var54 328)))
(assert (= "S" (CharAt var33 83)))
(assert (= "*" (CharAt var29 451)))
(assert (= "[" (CharAt var53 692)))
(assert (= "$" (CharAt var57 742)))
(assert (= "x" (CharAt var7 159)))
(assert (= "s" (CharAt var20 572)))
(assert (= "4" (CharAt var14 803)))
(assert (= "1" (CharAt var45 297)))
(assert (= "*" (CharAt var24 187)))
(assert (= "d" (CharAt var31 717)))
(assert (= "(" (CharAt var53 552)))
(assert (= "Y" (CharAt var45 234)))
(assert (= "I" (CharAt var51 928)))
(assert (= "N" (CharAt var27 768)))
(assert (= "1" (CharAt var39 660)))
(assert (= "v" (CharAt var3 966)))
(assert (= "k" (CharAt var43 624)))
(assert (= "7" (CharAt var48 293)))
(assert (= "Y" (CharAt var51 524)))
(assert (= "+" (CharAt var1 758)))
(assert (= "^" (CharAt var16 296)))
(assert (= "u" (CharAt var40 794)))
(assert (= "v" (CharAt var10 762)))
(assert (= ">" (CharAt var57 523)))
(assert (= ">" (CharAt var12 866)))
(assert (= "o" (CharAt var38 520)))
(assert (= "9" (CharAt var10 325)))
(assert (= "q" (CharAt var2 535)))
(assert (= "$" (CharAt var35 210)))
(assert (= "[" (CharAt var55 662)))
(assert (= "/" (CharAt var24 336)))
(assert (= "~" (CharAt var27 895)))
(assert (= ":" (CharAt var37 21)))
(assert (= "y" (CharAt var26 106)))
(assert (= "i" (CharAt var38 771)))
(assert (= "w" (CharAt var2 655)))
(assert (= "}" (CharAt var59 32)))
(assert (= "2" (CharAt var0 790)))
(assert (= "9" (CharAt var16 39)))
(assert (= "8" (CharAt var47 305)))
(assert (= "^" (CharAt var30 209)))
(assert (= "W" (CharAt var21 298)))
(assert (= "f" (CharAt var48 894)))
(assert (= "`" (CharAt var37 680)))
(assert (= "j" (CharAt var39 921)))
(assert (= "%" (CharAt var45 230)))
(assert (= "I" (CharAt var53 186)))
(assert (= "N" (CharAt var59 115)))
(assert (= ")" (CharAt var27 113)))
(assert (= "g" (CharAt var30 62)))
(assert (= "," (CharAt var20 108)))
(assert (= "W" (CharAt var8 629)))
(assert (= "7" (CharAt var0 186)))
(assert (= "I" (CharAt var14 314)))
(assert (= "Q" (CharAt var25 503)))
(assert (= "G" (CharAt var40 840)))
(assert (= "Z" (CharAt var18 271)))
(assert (= "k" (CharAt var51 77)))
(assert (= "N" (CharAt var44 857)))
(assert (= "}" (CharAt var41 49)))
(assert (= "x" (CharAt var27 434)))
(assert (= "w" (CharAt var16 275)))
(assert (= "u" (CharAt var8 407)))
(assert (= "s" (CharAt var15 96)))
(assert (= "*" (CharAt var60 223)))
(assert (= "O" (CharAt var59 968)))
(assert (= "g" (CharAt var51 735)))
(assert (= "=" (CharAt var55 370)))
(assert (= "5" (CharAt var56 120)))
(assert (= "," (CharAt var43 785)))
(assert (= "s" (CharAt var24 734)))
(assert (= "L" (CharAt var9 755)))
(assert (= "x" (CharAt var12 104)))
(assert (= "]" (CharAt var20 660)))
(assert (= "r" (CharAt var0 781)))
(assert (= "?" (CharAt var10 991)))
(assert (= "C" (CharAt var37 841)))
(assert (= "U" (CharAt var47 481)))
(assert (= "l" (CharAt var37 527)))
(assert (= "w" (CharAt var38 445)))
(assert (= "~" (CharAt var8 338)))
(assert (= "L" (CharAt var12 468)))
(assert (= "!" (CharAt var41 947)))
(assert (= "9" (CharAt var7 895)))
(assert (= "[" (CharAt var58 480)))
(assert (= "~" (CharAt var56 738)))
(assert (= "S" (CharAt var59 252)))
(assert (= "8" (CharAt var20 478)))
(assert (= "c" (CharAt var9 601)))
(assert (= "W" (CharAt var8 53)))
(assert (= "0" (CharAt var47 630)))
(assert (= "2" (CharAt var11 931)))
(assert (= "*" (CharAt var32 886)))
(assert (= "4" (CharAt var39 23)))
(assert (= "O" (CharAt var35 646)))
(assert (= "8" (CharAt var28 608)))
(assert (= "i" (CharAt var54 266)))
(assert (= "b" (CharAt var20 442)))
(assert (= "o" (CharAt var52 382)))
(assert (= "K" (CharAt var44 673)))
(assert (= "_" (CharAt var4 198)))
(assert (= "z" (CharAt var40 185)))
(assert (= "T" (CharAt var36 772)))
(assert (= "+" (CharAt var8 349)))
(assert (= "b" (CharAt var40 64)))
(assert (= "z" (CharAt var41 830)))
(assert (= "c" (CharAt var51 29)))
(assert (= "!" (CharAt var1 33)))
(assert (= "i" (CharAt var48 417)))
(assert (= "z" (CharAt var42 559)))
(assert (= "<" (CharAt var20 127)))
(assert (= "+" (CharAt var31 939)))
(assert (= "U" (CharAt var8 761)))
(assert (= "p" (CharAt var45 356)))
(assert (= "L" (CharAt var9 895)))
(assert (= "A" (CharAt var40 621)))
(assert (= "S" (CharAt var51 520)))
(assert (= "_" (CharAt var6 455)))
(assert (= "Y" (CharAt var51 82)))
(assert (= "A" (CharAt var27 668)))
(assert (= "d" (CharAt var23 578)))
(assert (= "Z" (CharAt var23 152)))
(assert (= "a" (CharAt var40 727)))
(assert (= "%" (CharAt var52 970)))
(assert (= "g" (CharAt var0 496)))
(assert (= "7" (CharAt var11 592)))
(assert (= "-" (CharAt var52 812)))
(assert (= "E" (CharAt var14 144)))
(assert (= "A" (CharAt var37 274)))
(assert (= "w" (CharAt var42 440)))
(assert (= "G" (CharAt var38 493)))
(assert (= ")" (CharAt var0 782)))
(assert (= "<" (CharAt var23 874)))
(assert (= "<" (CharAt var44 694)))
(assert (= "Q" (CharAt var46 411)))
(assert (= "<" (CharAt var29 951)))
(assert (= "&" (CharAt var19 632)))
(assert (= "L" (CharAt var35 658)))
(assert (= ")" (CharAt var26 370)))
(assert (= "." (CharAt var35 844)))
(assert (= "+" (CharAt var25 22)))
(assert (= "D" (CharAt var21 685)))
(assert (= "W" (CharAt var54 684)))
(assert (= "8" (CharAt var24 563)))
(assert (= "P" (CharAt var13 656)))
(assert (= "k" (CharAt var51 519)))
(assert (= "i" (CharAt var26 281)))
(assert (= "4" (CharAt var21 384)))
(assert (= "<" (CharAt var10 297)))
(assert (= "c" (CharAt var36 957)))
(assert (= "@" (CharAt var34 642)))
(assert (= "6" (CharAt var47 915)))
(assert (= "7" (CharAt var34 111)))
(assert (= "x" (CharAt var6 852)))
(assert (= "k" (CharAt var35 734)))
(assert (= "q" (CharAt var21 626)))
(assert (= "k" (CharAt var7 90)))
(assert (= "J" (CharAt var59 306)))
(assert (= "4" (CharAt var6 321)))
(assert (= "A" (CharAt var15 144)))
(assert (= "z" (CharAt var12 24)))
(assert (= "[" (CharAt var42 523)))
(assert (= "0" (CharAt var38 478)))
(assert (= "Z" (CharAt var49 667)))
(assert (= "{" (CharAt var53 798)))
(assert (= "'" (CharAt var52 11)))
(assert (= "5" (CharAt var7 300)))
(assert (= "H" (CharAt var38 152)))
(assert (= "6" (CharAt var7 222)))
(assert (= "A" (CharAt var4 158)))
(assert (= "*" (CharAt var31 44)))
(assert (= "p" (CharAt var11 868)))
(assert (= "!" (CharAt var12 127)))
(assert (= "H" (CharAt var57 492)))
(assert (= "L" (CharAt var57 575)))
(assert (= "," (CharAt var56 38)))
(assert (= "T" (CharAt var5 964)))
(assert (= "B" (CharAt var57 9)))
(assert (= "P" (CharAt var60 883)))
(assert (= "(" (CharAt var48 462)))
(assert (= "Y" (CharAt var22 63)))
(assert (= "x" (CharAt var7 569)))
(assert (= "1" (CharAt var22 866)))
(assert (= "s" (CharAt var30 400)))
(assert (= ":" (CharAt var12 41)))
(assert (= "q" (CharAt var33 183)))
(assert (= "q" (CharAt var2 74)))
(assert (= "`" (CharAt var28 240)))
(assert (= "\"" (CharAt var38 519)))
(assert (= "a" (CharAt var36 714)))
(assert (= "w" (CharAt var19 673)))
(assert (= "$" (CharAt var57 449)))
(check-sat)
(get-model)